c colouring generated by benchmark framework
p edge 500 58862
v 1 75
v 2 12
v 3 86
v 4 58
v 5 56
v 6 49
v 7 53
v 8 33
v 9 25
v 10 28
v 11 28
v 12 72
v 13 23
v 14 84
v 15 93
v 16 8
v 17 13
v 18 98
v 19 80
v 20 78
v 21 41
v 22 3
v 23 51
v 24 37
v 25 118
v 26 36
v 27 21
v 28 119
v 29 51
v 30 8
v 31 9
v 32 122
v 33 5
v 34 17
v 35 71
v 36 78
v 37 67
v 38 30
v 39 110
v 40 30
v 41 99
v 42 25
v 43 132
v 44 59
v 45 13
v 46 75
v 47 5
v 48 91
v 49 63
v 50 113
v 51 104
v 52 85
v 53 30
v 54 33
v 55 21
v 56 114
v 57 30
v 58 110
v 59 69
v 60 76
v 61 49
v 62 18
v 63 70
v 64 88
v 65 67
v 66 64
v 67 87
v 68 62
v 69 60
v 70 109
v 71 86
v 72 73
v 73 22
v 74 118
v 75 39
v 76 37
v 77 131
v 78 62
v 79 10
v 80 83
v 81 109
v 82 16
v 83 44
v 84 62
v 85 2
v 86 54
v 87 3
v 88 1
v 89 133
v 90 1
v 91 18
v 92 92
v 93 117
v 94 90
v 95 71
v 96 22
v 97 58
v 98 24
v 99 81
v 100 12
v 101 98
v 102 123
v 103 119
v 104 130
v 105 1
v 106 0
v 107 34
v 108 12
v 109 42
v 110 61
v 111 53
v 112 74
v 113 121
v 114 44
v 115 118
v 116 60
v 117 111
v 118 32
v 119 59
v 120 38
v 121 12
v 122 30
v 123 39
v 124 99
v 125 88
v 126 99
v 127 40
v 128 48
v 129 9
v 130 15
v 131 51
v 132 96
v 133 103
v 134 100
v 135 28
v 136 32
v 137 27
v 138 4
v 139 87
v 140 31
v 141 124
v 142 18
v 143 61
v 144 89
v 145 33
v 146 57
v 147 129
v 148 5
v 149 125
v 150 107
v 151 90
v 152 23
v 153 122
v 154 29
v 155 79
v 156 79
v 157 100
v 158 99
v 159 106
v 160 24
v 161 45
v 162 11
v 163 125
v 164 125
v 165 105
v 166 108
v 167 8
v 168 60
v 169 83
v 170 55
v 171 35
v 172 128
v 173 68
v 174 111
v 175 36
v 176 74
v 177 124
v 178 35
v 179 59
v 180 16
v 181 77
v 182 16
v 183 6
v 184 79
v 185 116
v 186 20
v 187 31
v 188 124
v 189 20
v 190 3
v 191 89
v 192 65
v 193 1
v 194 62
v 195 118
v 196 106
v 197 43
v 198 126
v 199 65
v 200 46
v 201 25
v 202 73
v 203 7
v 204 117
v 205 78
v 206 84
v 207 129
v 208 68
v 209 31
v 210 110
v 211 89
v 212 103
v 213 83
v 214 85
v 215 13
v 216 11
v 217 64
v 218 95
v 219 63
v 220 113
v 221 22
v 222 26
v 223 97
v 224 9
v 225 43
v 226 0
v 227 14
v 228 2
v 229 83
v 230 81
v 231 14
v 232 93
v 233 1
v 234 41
v 235 8
v 236 22
v 237 100
v 238 73
v 239 10
v 240 51
v 241 4
v 242 53
v 243 48
v 244 42
v 245 114
v 246 42
v 247 12
v 248 61
v 249 92
v 250 47
v 251 21
v 252 2
v 253 101
v 254 19
v 255 62
v 256 120
v 257 109
v 258 86
v 259 86
v 260 38
v 261 43
v 262 81
v 263 94
v 264 49
v 265 95
v 266 38
v 267 53
v 268 67
v 269 92
v 270 108
v 271 7
v 272 60
v 273 29
v 274 35
v 275 133
v 276 44
v 277 116
v 278 111
v 279 24
v 280 121
v 281 74
v 282 56
v 283 35
v 284 90
v 285 54
v 286 74
v 287 50
v 288 98
v 289 54
v 290 64
v 291 20
v 292 14
v 293 29
v 294 84
v 295 93
v 296 33
v 297 46
v 298 127
v 299 56
v 300 133
v 301 113
v 302 102
v 303 97
v 304 32
v 305 96
v 306 80
v 307 93
v 308 28
v 309 2
v 310 3
v 311 104
v 312 42
v 313 52
v 314 127
v 315 115
v 316 27
v 317 3
v 318 96
v 319 48
v 320 115
v 321 59
v 322 76
v 323 7
v 324 65
v 325 100
v 326 21
v 327 93
v 328 128
v 329 21
v 330 94
v 331 50
v 332 128
v 333 52
v 334 52
v 335 37
v 336 127
v 337 69
v 338 45
v 339 0
v 340 76
v 341 68
v 342 69
v 343 48
v 344 10
v 345 102
v 346 55
v 347 17
v 348 40
v 349 50
v 350 34
v 351 95
v 352 82
v 353 18
v 354 104
v 355 35
v 356 85
v 357 101
v 358 65
v 359 27
v 360 69
v 361 78
v 362 72
v 363 104
v 364 97
v 365 108
v 366 131
v 367 46
v 368 47
v 369 50
v 370 11
v 371 57
v 372 73
v 373 32
v 374 27
v 375 91
v 376 52
v 377 120
v 378 31
v 379 0
v 380 101
v 381 66
v 382 7
v 383 103
v 384 51
v 385 55
v 386 72
v 387 107
v 388 34
v 389 5
v 390 33
v 391 129
v 392 71
v 393 63
v 394 123
v 395 114
v 396 70
v 397 23
v 398 49
v 399 94
v 400 45
v 401 54
v 402 88
v 403 61
v 404 15
v 405 36
v 406 72
v 407 4
v 408 19
v 409 25
v 410 16
v 411 87
v 412 70
v 413 17
v 414 8
v 415 57
v 416 37
v 417 92
v 418 55
v 419 44
v 420 106
v 421 20
v 422 43
v 423 55
v 424 86
v 425 77
v 426 39
v 427 26
v 428 91
v 429 63
v 430 10
v 431 74
v 432 88
v 433 66
v 434 20
v 435 24
v 436 14
v 437 4
v 438 77
v 439 19
v 440 82
v 441 26
v 442 15
v 443 46
v 444 95
v 445 57
v 446 98
v 447 26
v 448 87
v 449 5
v 450 6
v 451 107
v 452 105
v 453 79
v 454 85
v 455 112
v 456 71
v 457 66
v 458 77
v 459 68
v 460 6
v 461 41
v 462 26
v 463 19
v 464 21
v 465 82
v 466 56
v 467 70
v 468 8
v 469 2
v 470 40
v 471 41
v 472 15
v 473 12
v 474 132
v 475 58
v 476 97
v 477 10
v 478 9
v 479 80
v 480 29
v 481 89
v 482 0
v 483 116
v 484 120
v 485 43
v 486 17
v 487 40
v 488 112
v 489 76
v 490 108
v 491 47
v 492 75
v 493 132
v 494 11
v 495 0
v 496 126
v 497 94
v 498 85
v 499 15
v 500 34
